1 1 -2 0
1 -1 3 0
1 -1 -4 0
1 1 5 0
1 -1 -6 0
1 -1 -7 0
1 -2 8 0
1 -2 3 0
1 2 -4 0
1 -2 1 0
1 2 5 0
1 -2 7 0
1 -9 10 0
1 -9 11 0
1 -9 12 0
1 9 3 0
1 -9 13 0
1 -9 14 0
1 9 15 0
1 9 5 0
1 9 7 0
1 12 11 0
1 12 16 0
1 -12 3 0
1 12 13 0
1 12 14 0
1 12 9 0
1 12 -5 0
1 4 17 0
1 -4 -18 0
1 -4 2 0
1 4 19 0
1 4 -20 0
1 4 -21 0
1 -4 -22 0
1 4 -9 0
1 -7 17 0
1 -7 23 0
1 7 -18 0
1 7 -12 0
1 -7 2 0
1 7 -21 0
1 7 -22 0
1 7 -9 0
1 7 -1 0
1 3 -17 0
1 -3 -24 0
1 3 -25 0
1 3 12 0
1 3 -2 0
1 3 26 0
1 3 20 0
1 3 27 0
1 -3 28 0
1 3 9 0
1 3 -1 0
1 -3 -5 0
1 5 -17 0
1 5 -24 0
1 -5 -25 0
1 -5 2 0
1 -5 -20 0
1 -5 28 0
1 -5 29 0
1 -22 10 0
1 -22 -11 0
1 -22 -18 0
1 22 4 0
1 -22 13 0
1 -22 -14 0
1 22 -7 0
1 18 -10 0
1 -18 -11 0
1 18 -25 0
1 -18 -4 0
1 -18 13 0
1 18 22 0
1 -18 -7 0
1 21 -10 0
1 21 11 0
1 21 23 0
1 21 30 0
1 -21 4 0
1 21 13 0
1 -21 14 0
1 21 -31 0
1 21 32 0
1 -21 7 0
1 23 10 0
1 23 -11 0
1 23 33 0
1 23 24 0
1 -23 -4 0
1 23 -13 0
1 -23 -21 0
1 -23 31 0
1 23 32 0
1 -14 34 0
1 -14 -35 0
1 -14 11 0
1 14 18 0
1 -14 -12 0
1 14 -36 0
1 14 -37 0
1 -14 38 0
1 11 34 0
1 -11 35 0
1 11 -39 0
1 -11 18 0
1 -11 12 0
1 -11 -36 0
1 11 40 0
1 11 -37 0
1 -11 -14 0
1 11 21 0
1 11 -22 0
1 11 -9 0
1 -11 38 0
1 -13 -10 0
1 -13 41 0
1 13 -17 0
1 -13 23 0
1 13 -18 0
1 -13 -12 0
1 -13 42 0
1 -13 20 0
1 -13 -21 0
1 13 -22 0
1 13 -9 0
1 -10 -41 0
1 -10 -43 0
1 10 -23 0
1 -10 -18 0
1 -10 12 0
1 10 -13 0
1 -10 -44 0
1 -10 20 0
1 10 21 0
1 -10 22 0
1 10 38 0
1 -37 35 0
1 -37 11 0
1 37 -33 0
1 37 30 0
1 -37 -20 0
1 -37 31 0
1 37 32 0
1 35 33 0
1 35 37 0
1 -35 14 0
1 35 31 0
1 -35 32 0
1 40 34 0
1 40 11 0
1 40 -33 0
1 -40 -30 0
1 -40 44 0
1 -40 -14 0
1 40 -31 0
1 40 -32 0
1 -34 -41 0
1 34 -33 0
1 -34 -14 0
1 34 -31 0
1 -34 32 0
1 32 -34 0
1 32 35 0
1 -32 -23 0
1 32 -30 0
1 32 45 0
1 -32 -46 0
1 -32 -47 0
1 -30 34 0
1 30 -35 0
1 -30 23 0
1 -30 48 0
1 -30 -45 0
1 -30 -37 0
1 30 21 0
1 30 -32 0
1 30 47 0
1 31 34 0
1 -31 -35 0
1 -31 -23 0
1 -31 45 0
1 -31 -49 0
1 -31 -36 0
1 31 -37 0
1 31 -21 0
1 -31 50 0
1 -31 38 0
1 33 34 0
1 33 35 0
1 -33 -23 0
1 33 51 0
1 33 45 0
1 -33 -49 0
1 33 36 0
1 33 -40 0
1 -33 37 0
1 -33 -21 0
1 -33 31 0
1 33 -47 0
1 33 -50 0
1 -33 38 0
1 -6 -52 0
1 -6 53 0
1 6 54 0
1 6 55 0
1 6 -1 0
1 6 -56 0
1 8 -52 0
1 8 -57 0
1 -8 54 0
1 8 -55 0
1 8 6 0
1 -15 -52 0
1 -15 -53 0
1 -15 -58 0
1 -15 54 0
1 -15 -59 0
1 -15 -60 0
1 15 -61 0
1 -16 52 0
1 -16 53 0
1 -16 -58 0
1 -16 62 0
1 16 12 0
1 16 63 0
1 16 59 0
1 16 60 0
1 -16 -15 0
1 53 24 0
1 -53 -64 0
1 -53 -16 0
1 -53 8 0
1 -53 -55 0
1 53 65 0
1 -53 27 0
1 -53 -28 0
1 -53 -15 0
1 -53 -6 0
1 55 -53 0
1 -55 66 0
1 55 -24 0
1 55 -16 0
1 -55 -67 0
1 -55 65 0
1 55 27 0
1 55 28 0
1 55 15 0
1 52 -68 0
1 -52 66 0
1 -52 69 0
1 52 16 0
1 -52 8 0
1 -52 -54 0
1 -52 65 0
1 -52 70 0
1 52 15 0
1 -52 6 0
1 -54 52 0
1 54 -66 0
1 -54 69 0
1 -54 -71 0
1 54 -8 0
1 -54 72 0
1 54 -65 0
1 -54 73 0
1 54 70 0
1 -54 -15 0
1 -28 53 0
1 -28 -62 0
1 28 3 0
1 28 55 0
1 28 -60 0
1 28 -70 0
1 28 5 0
1 -25 53 0
1 25 58 0
1 -25 -62 0
1 25 3 0
1 25 55 0
1 25 59 0
1 -25 60 0
1 25 -5 0
1 -27 -53 0
1 27 24 0
1 -27 -58 0
1 27 -62 0
1 -27 -74 0
1 -27 -3 0
1 -27 -55 0
1 -27 -59 0
1 27 60 0
1 27 73 0
1 -27 75 0
1 27 -76 0
1 27 5 0
1 24 60 0
1 -24 53 0
1 -24 -23 0
1 -24 58 0
1 -24 69 0
1 -24 -74 0
1 24 3 0
1 24 55 0
1 -24 -59 0
1 -24 75 0
1 24 76 0
1 24 -5 0
1 62 -77 0
1 -62 -60 0
1 62 41 0
1 -62 -17 0
1 -62 -24 0
1 62 -25 0
1 62 78 0
1 62 79 0
1 62 -20 0
1 -62 -27 0
1 62 -28 0
1 -62 -15 0
1 -60 77 0
1 60 -41 0
1 -60 17 0
1 60 25 0
1 -60 -62 0
1 -60 -16 0
1 -60 79 0
1 60 -44 0
1 -60 -20 0
1 60 -27 0
1 60 -80 0
1 -60 -28 0
1 58 -77 0
1 58 81 0
1 58 -66 0
1 -58 24 0
1 58 82 0
1 -58 25 0
1 58 -16 0
1 58 79 0
1 -58 83 0
1 -58 -65 0
1 58 28 0
1 -59 77 0
1 -59 -81 0
1 59 -66 0
1 -59 -25 0
1 -59 -16 0
1 59 65 0
1 -59 -27 0
1 59 -84 0
1 59 -28 0
1 -20 62 0
1 20 -74 0
1 -20 -85 0
1 20 4 0
1 20 13 0
1 20 -37 0
1 -20 65 0
1 20 60 0
1 20 -75 0
1 20 76 0
1 -20 -5 0
1 17 10 0
1 -17 35 0
1 17 62 0
1 17 85 0
1 -17 -3 0
1 17 -4 0
1 -17 -20 0
1 17 -60 0
1 -17 -75 0
1 17 -76 0
1 -17 5 0
1 17 7 0
1 -44 -86 0
1 44 -10 0
1 -44 -41 0
1 -44 -62 0
1 44 -74 0
1 -44 -85 0
1 44 26 0
1 44 -19 0
1 44 -40 0
1 44 -60 0
1 44 -75 0
1 -44 -29 0
1 41 34 0
1 -41 10 0
1 41 62 0
1 41 74 0
1 41 -85 0
1 41 -26 0
1 -41 19 0
1 41 44 0
1 -41 -60 0
1 41 -75 0
1 41 76 0
1 -41 -29 0
1 -85 41 0
1 85 -17 0
1 85 -24 0
1 -85 -87 0
1 -85 49 0
1 -85 -88 0
1 -85 36 0
1 -85 -44 0
1 -85 20 0
1 85 76 0
1 -85 -50 0
1 -85 -38 0
1 -76 -41 0
1 -76 24 0
1 76 87 0
1 -76 -49 0
1 76 36 0
1 76 89 0
1 -76 -44 0
1 76 -20 0
1 -76 -27 0
1 76 50 0
1 -76 38 0
1 -74 77 0
1 -74 -41 0
1 74 -17 0
1 -74 24 0
1 74 90 0
1 74 87 0
1 74 79 0
1 74 -44 0
1 74 -20 0
1 74 27 0
1 -74 -75 0
1 74 91 0
1 75 -77 0
1 75 -41 0
1 75 24 0
1 75 -87 0
1 -75 -92 0
1 75 -79 0
1 75 -44 0
1 -75 -20 0
1 75 27 0
1 75 -93 0
1 -75 91 0
1 75 94 0
1 -36 -86 0
1 36 -11 0
1 36 -33 0
1 -36 -85 0
1 -36 -26 0
1 36 -79 0
1 36 13 0
1 36 -19 0
1 36 31 0
1 -36 76 0
1 -36 -29 0
1 -36 38 0
1 38 77 0
1 38 -10 0
1 38 -33 0
1 -38 -85 0
1 38 36 0
1 38 19 0
1 -38 -13 0
1 -38 -31 0
1 -38 76 0
1 -38 29 0
1 49 43 0
1 49 -39 0
1 -49 33 0
1 -49 -85 0
1 -49 -92 0
1 49 26 0
1 -49 -19 0
1 -49 -95 0
1 49 76 0
1 -49 50 0
1 -49 -29 0
1 -50 -86 0
1 50 -43 0
1 -50 33 0
1 50 85 0
1 -50 49 0
1 50 26 0
1 -50 -19 0
1 -50 42 0
1 -50 -95 0
1 -50 -31 0
1 -50 -76 0
1 19 -86 0
1 -19 41 0
1 -19 -96 0
1 19 97 0
1 19 45 0
1 19 -49 0
1 19 36 0
1 19 4 0
1 19 -98 0
1 -19 -44 0
1 -19 99 0
1 19 -100 0
1 -19 50 0
1 -19 -38 0
1 -86 -41 0
1 -86 97 0
1 86 -45 0
1 -86 -36 0
1 -86 -44 0
1 86 99 0
1 -86 100 0
1 -86 -50 0
1 86 -38 0
1 26 -41 0
1 26 96 0
1 26 -101 0
1 26 -87 0
1 -26 -49 0
1 26 3 0
1 -26 36 0
1 26 102 0
1 -26 -44 0
1 26 -99 0
1 26 103 0
1 26 -91 0
1 26 50 0
1 26 29 0
1 26 -38 0
1 -29 41 0
1 29 96 0
1 -29 -101 0
1 29 87 0
1 -29 49 0
1 -29 26 0
1 -29 44 0
1 -29 5 0
1 29 -99 0
1 -29 103 0
1 -29 -91 0
1 29 -50 0
1 -29 -104 0
1 -45 -86 0
1 45 -43 0
1 -45 -33 0
1 -45 39 0
1 45 -30 0
1 45 -87 0
1 45 19 0
1 -45 42 0
1 45 32 0
1 45 -47 0
1 -47 -86 0
1 -47 39 0
1 -47 -33 0
1 47 45 0
1 -47 -19 0
1 47 95 0
1 47 31 0
1 47 -32 0
1 -97 86 0
1 -97 43 0
1 -97 -39 0
1 97 -51 0
1 97 101 0
1 -97 95 0
1 100 -43 0
1 -100 -39 0
1 100 51 0
1 -100 -48 0
1 100 -97 0
1 -100 -19 0
1 100 -42 0
1 -100 -95 0
1 -100 -105 0
1 -100 46 0
1 -100 103 0
1 95 -106 0
1 -95 -39 0
1 95 107 0
1 95 97 0
1 95 45 0
1 -95 49 0
1 95 108 0
1 95 109 0
1 95 50 0
1 39 11 0
1 39 106 0
1 -39 -110 0
1 -39 -111 0
1 39 107 0
1 39 -97 0
1 -39 49 0
1 39 108 0
1 39 -109 0
1 -39 95 0
1 39 112 0
1 39 -100 0
1 -39 50 0
1 -42 43 0
1 42 -96 0
1 -42 97 0
1 42 45 0
1 -42 49 0
1 -42 13 0
1 42 -108 0
1 -42 113 0
1 -42 -114 0
1 42 -99 0
1 -42 -100 0
1 42 47 0
1 42 -50 0
1 43 -115 0
1 -43 -106 0
1 -43 96 0
1 -43 97 0
1 43 45 0
1 -43 -49 0
1 -43 -42 0
1 -43 -114 0
1 43 -99 0
1 -43 -100 0
1 43 -47 0
1 43 50 0
1 -107 39 0
1 107 51 0
1 107 -48 0
1 107 96 0
1 107 105 0
1 -107 95 0
1 -107 -112 0
1 107 -46 0
1 112 39 0
1 -112 -51 0
1 -112 -107 0
1 -112 48 0
1 -112 -95 0
1 -112 -105 0
1 112 -99 0
1 112 46 0
1 111 -39 0
1 111 51 0
1 -111 -116 0
1 111 48 0
1 -111 -109 0
1 111 95 0
1 111 -105 0
1 111 -46 0
1 -109 111 0
1 109 51 0
1 109 -48 0
1 -109 -95 0
1 109 105 0
1 109 -46 0
1 46 -117 0
1 46 111 0
1 -46 -107 0
1 -46 48 0
1 46 97 0
1 -46 -118 0
1 -46 109 0
1 -46 -32 0
1 -46 100 0
1 -46 -119 0
1 48 -117 0
1 -48 -111 0
1 48 -30 0
1 48 -107 0
1 48 120 0
1 48 -97 0
1 48 118 0
1 48 109 0
1 48 -100 0
1 -48 -46 0
1 105 -121 0
1 -105 106 0
1 105 111 0
1 105 -51 0
1 -105 107 0
1 -105 97 0
1 105 -118 0
1 105 -122 0
1 -105 -109 0
1 105 31 0
1 105 -123 0
1 -105 100 0
1 -51 117 0
1 51 121 0
1 -51 106 0
1 51 -111 0
1 -51 124 0
1 -51 97 0
1 51 -122 0
1 -51 105 0
1 51 -108 0
1 -51 -109 0
1 -51 -112 0
1 -51 100 0
1 -56 -125 0
1 56 -126 0
1 -56 57 0
1 56 -127 0
1 -56 128 0
1 -56 -6 0
1 57 -125 0
1 -57 126 0
1 57 -8 0
1 57 127 0
1 -57 56 0
1 -61 125 0
1 61 126 0
1 -61 129 0
1 -61 -63 0
1 61 130 0
1 61 128 0
1 -61 -131 0
1 61 15 0
1 61 -132 0
1 -63 -125 0
1 63 126 0
1 -63 129 0
1 -63 130 0
1 -63 127 0
1 -63 -128 0
1 63 -131 0
1 63 -61 0
1 -128 -69 0
1 -128 -126 0
1 128 71 0
1 128 63 0
1 -128 57 0
1 -128 73 0
1 128 70 0
1 -128 -61 0
1 128 56 0
1 -126 128 0
1 -126 -69 0
1 126 -71 0
1 -126 63 0
1 -126 -73 0
1 126 70 0
1 126 61 0
1 126 -56 0
1 -127 -125 0
1 -127 63 0
1 127 56 0
1 125 -133 0
1 -125 -127 0
1 -125 61 0
1 -125 56 0
1 70 52 0
1 -70 126 0
1 -70 130 0
1 70 -54 0
1 70 128 0
1 70 28 0
1 -70 131 0
1 -70 132 0
1 71 -52 0
1 71 126 0
1 71 129 0
1 -71 130 0
1 -71 131 0
1 71 -54 0
1 71 -128 0
1 71 70 0
1 71 132 0
1 73 134 0
1 73 -52 0
1 73 69 0
1 73 -129 0
1 73 130 0
1 -73 135 0
1 -73 -136 0
1 -73 54 0
1 73 27 0
1 -73 128 0
1 73 -131 0
1 73 -132 0
1 -69 134 0
1 -69 52 0
1 69 -128 0
1 -69 -24 0
1 -69 126 0
1 69 129 0
1 69 -135 0
1 69 136 0
1 69 54 0
1 69 73 0
1 69 -131 0
1 -69 132 0
1 -69 137 0
1 -132 138 0
1 -132 -81 0
1 -132 66 0
1 -132 -69 0
1 -132 71 0
1 -132 -63 0
1 132 -130 0
1 -132 139 0
1 -132 83 0
1 132 -65 0
1 -132 -70 0
1 132 -61 0
1 -130 -81 0
1 -130 -66 0
1 -130 71 0
1 -130 63 0
1 130 140 0
1 -130 139 0
1 -130 -83 0
1 130 -65 0
1 130 132 0
1 -130 73 0
1 130 70 0
1 130 -61 0
1 -131 71 0
1 -131 129 0
1 -131 63 0
1 -131 -139 0
1 -131 -73 0
1 131 70 0
1 131 141 0
1 131 61 0
1 129 -142 0
1 129 -63 0
1 -129 -131 0
1 -129 73 0
1 -129 70 0
1 -129 -61 0
1 -65 -134 0
1 65 -52 0
1 65 -53 0
1 65 58 0
1 -65 130 0
1 65 135 0
1 65 54 0
1 -65 55 0
1 65 -59 0
1 65 20 0
1 65 -132 0
1 65 -137 0
1 66 134 0
1 66 -52 0
1 -66 -53 0
1 66 -130 0
1 66 -136 0
1 66 -54 0
1 -66 55 0
1 66 -59 0
1 66 65 0
1 66 -137 0
1 83 -134 0
1 -83 -68 0
1 -83 -64 0
1 83 -58 0
1 83 130 0
1 83 136 0
1 -83 -44 0
1 -83 -132 0
1 83 137 0
1 81 -64 0
1 -81 58 0
1 81 130 0
1 81 -135 0
1 81 -83 0
1 81 -67 0
1 -134 77 0
1 -134 -143 0
1 -134 -81 0
1 -134 66 0
1 -134 -69 0
1 -134 -144 0
1 134 -92 0
1 -134 136 0
1 134 79 0
1 -134 -83 0
1 -134 145 0
1 134 -94 0
1 136 77 0
1 136 134 0
1 136 81 0
1 -136 69 0
1 -136 -144 0
1 136 92 0
1 136 146 0
1 -136 79 0
1 -136 83 0
1 136 -65 0
1 -137 138 0
1 -137 81 0
1 -137 147 0
1 -137 69 0
1 -137 -135 0
1 137 144 0
1 137 148 0
1 -137 -139 0
1 137 83 0
1 137 65 0
1 -137 -73 0
1 135 138 0
1 135 -81 0
1 135 69 0
1 135 -144 0
1 135 -149 0
1 -135 139 0
1 -135 -83 0
1 135 65 0
1 135 -73 0
1 -135 -137 0
1 79 -77 0
1 -79 64 0
1 79 -74 0
1 79 -136 0
1 79 36 0
1 79 -139 0
1 -79 72 0
1 -79 -67 0
1 79 -59 0
1 -79 60 0
1 79 75 0
1 77 -134 0
1 -77 -138 0
1 77 68 0
1 77 -64 0
1 77 74 0
1 -77 136 0
1 77 79 0
1 77 -67 0
1 77 -59 0
1 -77 75 0
1 77 38 0
1 -92 134 0
1 92 -64 0
1 92 82 0
1 92 -78 0
1 -92 -74 0
1 -92 136 0
1 92 72 0
1 92 -67 0
1 92 -84 0
1 92 80 0
1 92 -94 0
1 -94 134 0
1 -94 -68 0
1 -94 64 0
1 94 -82 0
1 94 78 0
1 -94 -74 0
1 94 136 0
1 -94 72 0
1 94 -67 0
1 94 80 0
1 94 50 0
1 -94 150 0
1 64 81 0
1 64 53 0
1 64 -151 0
1 -64 -152 0
1 -64 -101 0
1 64 87 0
1 64 92 0
1 64 79 0
1 -64 -83 0
1 64 -153 0
1 -64 -103 0
1 -64 -94 0
1 67 -77 0
1 -67 81 0
1 67 -64 0
1 -67 -152 0
1 67 -101 0
1 -67 -87 0
1 67 92 0
1 67 79 0
1 67 -55 0
1 -67 -83 0
1 -67 153 0
1 67 103 0
1 -67 -91 0
1 -67 -94 0
1 68 77 0
1 68 -52 0
1 -68 -81 0
1 -68 -152 0
1 68 -154 0
1 68 144 0
1 68 92 0
1 68 -72 0
1 -68 -83 0
1 68 -153 0
1 68 155 0
1 -68 145 0
1 -68 94 0
1 72 -77 0
1 72 -81 0
1 72 -68 0
1 -72 154 0
1 -72 -144 0
1 -72 92 0
1 -72 79 0
1 -72 -54 0
1 72 -156 0
1 -72 -83 0
1 72 -153 0
1 72 -155 0
1 -72 145 0
1 -72 -94 0
1 87 82 0
1 87 -78 0
1 -87 74 0
1 -87 45 0
1 -87 85 0
1 87 144 0
1 -87 67 0
1 -87 -80 0
1 -87 75 0
1 87 29 0
1 91 -64 0
1 -91 82 0
1 91 -74 0
1 -91 76 0
1 -91 85 0
1 91 87 0
1 -91 26 0
1 91 -84 0
1 91 80 0
1 91 -75 0
1 -91 47 0
1 91 -145 0
1 91 29 0
1 -101 -64 0
1 -101 78 0
1 -101 97 0
1 -101 -90 0
1 101 154 0
1 -101 88 0
1 101 -26 0
1 -101 67 0
1 101 84 0
1 101 -103 0
1 101 89 0
1 103 -64 0
1 103 82 0
1 103 78 0
1 103 101 0
1 -103 90 0
1 -103 88 0
1 -103 -67 0
1 103 84 0
1 103 93 0
1 -103 -155 0
1 -78 -116 0
1 78 62 0
1 78 -96 0
1 -78 101 0
1 78 92 0
1 -78 -114 0
1 -78 -103 0
1 -78 -91 0
1 80 -157 0
1 80 -116 0
1 80 96 0
1 80 101 0
1 -80 -92 0
1 -80 60 0
1 80 -158 0
1 80 -103 0
1 80 91 0
1 -80 94 0
1 -82 157 0
1 82 -159 0
1 -82 -152 0
1 -82 -101 0
1 -82 -87 0
1 82 92 0
1 82 160 0
1 -82 84 0
1 -82 -161 0
1 82 153 0
1 -82 103 0
1 82 91 0
1 82 94 0
1 -84 -162 0
1 -84 82 0
1 -84 -163 0
1 84 152 0
1 -84 -87 0
1 -84 -92 0
1 84 -160 0
1 84 59 0
1 84 -161 0
1 84 -153 0
1 -84 -91 0
1 -96 86 0
1 -96 -43 0
1 -96 80 0
1 96 107 0
1 96 -78 0
1 96 -90 0
1 -96 26 0
1 -96 -19 0
1 96 99 0
1 96 93 0
1 96 29 0
1 -99 -86 0
1 -99 43 0
1 99 96 0
1 99 78 0
1 99 -88 0
1 99 -26 0
1 -99 19 0
1 99 42 0
1 99 -112 0
1 99 -80 0
1 99 -153 0
1 -99 93 0
1 -99 89 0
1 -116 164 0
1 116 111 0
1 116 -163 0
1 -116 78 0
1 -116 88 0
1 116 -102 0
1 116 98 0
1 116 42 0
1 116 114 0
1 116 -80 0
1 -116 -93 0
1 116 -104 0
1 -114 164 0
1 114 -43 0
1 114 -116 0
1 -114 78 0
1 -114 -90 0
1 -114 88 0
1 -114 -102 0
1 114 -98 0
1 114 42 0
1 -114 109 0
1 114 -161 0
1 -114 -80 0
1 -114 89 0
1 -114 -104 0
1 -88 -165 0
1 88 -121 0
1 88 -116 0
1 88 -96 0
1 -88 101 0
1 -88 166 0
1 88 167 0
1 -88 122 0
1 88 108 0
1 88 99 0
1 -88 -89 0
1 -89 116 0
1 89 -101 0
1 -89 -88 0
1 -89 167 0
1 89 122 0
1 -89 -114 0
1 89 -99 0
1 89 103 0
1 89 -168 0
1 -90 -165 0
1 90 -93 0
1 -90 96 0
1 -90 74 0
1 90 -101 0
1 90 169 0
1 90 -167 0
1 -90 170 0
1 -90 160 0
1 -90 -99 0
1 -90 103 0
1 93 -165 0
1 93 -157 0
1 93 -116 0
1 -93 96 0
1 -93 101 0
1 93 90 0
1 -93 167 0
1 93 -160 0
1 93 114 0
1 93 99 0
1 -93 75 0
1 93 -103 0
1 93 -171 0
1 106 -164 0
1 106 -43 0
1 106 -39 0
1 106 -157 0
1 -106 51 0
1 106 102 0
1 106 98 0
1 -106 108 0
1 -106 -42 0
1 -106 -105 0
1 -106 -89 0
1 108 -164 0
1 -108 -43 0
1 108 -106 0
1 -108 51 0
1 -108 88 0
1 -108 -102 0
1 -108 -98 0
1 108 42 0
1 108 -160 0
1 -108 -95 0
1 -108 -105 0
1 -108 89 0
1 -108 -104 0
1 -121 -164 0
1 121 172 0
1 121 88 0
1 -121 -102 0
1 -121 -98 0
1 121 -113 0
1 -121 -173 0
1 121 105 0
1 121 89 0
1 122 121 0
1 -122 110 0
1 -122 -51 0
1 122 -88 0
1 -122 102 0
1 122 98 0
1 122 105 0
1 122 -104 0
1 98 117 0
1 -98 -164 0
1 -98 -121 0
1 98 -106 0
1 -98 -116 0
1 98 174 0
1 98 175 0
1 -98 -118 0
1 -98 -122 0
1 -98 19 0
1 -98 108 0
1 98 -114 0
1 -98 176 0
1 -98 177 0
1 164 -117 0
1 -164 -121 0
1 164 -116 0
1 164 -174 0
1 -164 118 0
1 164 -122 0
1 164 98 0
1 -164 -108 0
1 -164 114 0
1 -164 176 0
1 164 177 0
1 -102 -165 0
1 -102 -121 0
1 102 -106 0
1 102 -116 0
1 102 174 0
1 -102 -178 0
1 -102 -26 0
1 -102 -167 0
1 -102 -122 0
1 -102 -108 0
1 -102 114 0
1 102 104 0
1 -104 165 0
1 -104 -121 0
1 -104 106 0
1 104 116 0
1 104 174 0
1 -104 178 0
1 -104 167 0
1 -104 -122 0
1 -104 -102 0
1 -104 114 0
1 -104 -176 0
1 -104 -29 0
1 -104 179 0
1 117 165 0
1 117 164 0
1 117 -115 0
1 -117 -110 0
1 117 51 0
1 -117 48 0
1 -117 -118 0
1 -117 98 0
1 -117 173 0
1 -117 -105 0
1 117 46 0
1 -118 164 0
1 -118 115 0
1 118 -51 0
1 118 -48 0
1 118 167 0
1 118 -98 0
1 -118 173 0
1 118 105 0
1 177 115 0
1 177 -110 0
1 -177 -124 0
1 177 -120 0
1 177 -98 0
1 -177 113 0
1 -177 -173 0
1 -177 -123 0
1 -177 119 0
1 177 -179 0
1 -175 -115 0
1 175 -110 0
1 -175 124 0
1 -175 120 0
1 175 -178 0
1 -175 -98 0
1 -175 -123 0
1 -175 119 0
1 175 177 0
1 173 180 0
1 173 -181 0
1 173 -175 0
1 173 118 0
1 173 122 0
1 173 -95 0
1 -173 182 0
1 -173 183 0
1 173 -177 0
1 -110 117 0
1 110 -121 0
1 110 39 0
1 110 -181 0
1 110 175 0
1 -110 118 0
1 110 173 0
1 -110 -182 0
1 110 -183 0
1 -110 177 0
1 -113 117 0
1 113 -121 0
1 -113 115 0
1 -113 -184 0
1 -113 -174 0
1 -113 175 0
1 -113 -118 0
1 113 -122 0
1 113 -42 0
1 113 -176 0
1 115 -121 0
1 115 -43 0
1 -115 175 0
1 -115 122 0
1 -115 113 0
1 115 185 0
1 -115 -176 0
1 -115 177 0
1 -183 -124 0
1 -183 -120 0
1 -183 181 0
1 183 173 0
1 -183 -123 0
1 -183 -176 0
1 -181 -110 0
1 -181 -124 0
1 181 -120 0
1 181 174 0
1 -181 -173 0
1 -181 -119 0
1 182 110 0
1 -182 180 0
1 -182 120 0
1 182 -123 0
1 182 -119 0
1 -182 -185 0
1 -180 119 0
1 180 110 0
1 -180 124 0
1 180 120 0
1 180 184 0
1 -180 -173 0
1 -180 -123 0
1 180 182 0
1 -119 180 0
1 119 120 0
1 119 -181 0
1 -119 175 0
1 -119 -46 0
1 119 -182 0
1 120 119 0
1 -120 -48 0
1 120 -180 0
1 120 -181 0
1 120 -175 0
1 -120 -182 0
1 120 183 0
1 123 124 0
1 -123 181 0
1 -123 175 0
1 123 105 0
1 123 -182 0
1 -123 -177 0
1 124 -51 0
1 -124 180 0
1 124 175 0
1 -124 -182 0
1 -124 183 0
1 -124 177 0
1 139 138 0
1 139 133 0
1 139 -186 0
1 -139 -130 0
1 -139 -135 0
1 139 -79 0
1 139 131 0
1 -139 132 0
1 -138 -77 0
1 138 -133 0
1 138 -186 0
1 -138 -129 0
1 -138 -130 0
1 -138 -139 0
1 138 187 0
1 138 131 0
1 138 132 0
1 138 137 0
1 -148 -186 0
1 -148 -142 0
1 -148 140 0
1 148 -188 0
1 148 -187 0
1 -148 141 0
1 148 189 0
1 -148 -137 0
1 148 150 0
1 -150 133 0
1 -150 186 0
1 -150 142 0
1 150 -140 0
1 150 -135 0
1 -150 148 0
1 150 -188 0
1 -150 -187 0
1 -150 141 0
1 150 137 0
1 -150 -94 0
1 -187 138 0
1 187 186 0
1 187 -144 0
1 187 190 0
1 187 -148 0
1 187 128 0
1 187 155 0
1 -187 145 0
1 187 -150 0
1 186 138 0
1 186 126 0
1 186 191 0
1 186 -154 0
1 186 -139 0
1 186 -187 0
1 -186 155 0
1 186 -145 0
1 186 150 0
1 188 138 0
1 188 -139 0
1 -188 -127 0
1 -188 192 0
1 188 -150 0
1 -133 138 0
1 -133 -125 0
1 -133 -193 0
1 -133 -148 0
1 133 139 0
1 -133 188 0
1 -133 -150 0
1 -144 186 0
1 -144 -142 0
1 144 140 0
1 -144 87 0
1 -144 135 0
1 144 -136 0
1 144 -141 0
1 -144 -189 0
1 -144 -145 0
1 144 137 0
1 145 137 0
1 -145 68 0
1 -145 186 0
1 145 -142 0
1 -145 -135 0
1 145 136 0
1 -145 -72 0
1 -145 187 0
1 145 141 0
1 -145 -91 0
1 -145 189 0
1 154 -186 0
1 154 -142 0
1 154 -140 0
1 154 -149 0
1 -154 -146 0
1 -154 -72 0
1 154 187 0
1 -154 -155 0
1 154 -147 0
1 155 -143 0
1 155 -68 0
1 155 186 0
1 -155 154 0
1 -155 140 0
1 -155 149 0
1 155 -146 0
1 155 187 0
1 -155 -141 0
1 155 -189 0
1 -189 163 0
1 189 -152 0
1 189 -154 0
1 -189 140 0
1 -189 -144 0
1 189 148 0
1 189 -194 0
1 -189 -161 0
1 -189 -153 0
1 189 -155 0
1 189 -132 0
1 189 -145 0
1 -189 -195 0
1 -189 150 0
1 140 -196 0
1 -140 -163 0
1 -140 -152 0
1 140 -130 0
1 -140 154 0
1 -140 197 0
1 -140 144 0
1 140 161 0
1 -140 -153 0
1 140 -155 0
1 140 189 0
1 141 -196 0
1 141 154 0
1 -141 144 0
1 141 131 0
1 -141 148 0
1 141 -194 0
1 -141 155 0
1 141 145 0
1 141 150 0
1 142 196 0
1 142 -129 0
1 -142 -154 0
1 -142 -148 0
1 142 141 0
1 -142 194 0
1 142 -145 0
1 -152 68 0
1 -152 64 0
1 -152 -82 0
1 -152 -96 0
1 152 140 0
1 152 146 0
1 -152 -72 0
1 152 -67 0
1 152 -84 0
1 -152 -153 0
1 -152 189 0
1 152 -147 0
1 -153 -143 0
1 153 64 0
1 153 82 0
1 -153 -152 0
1 -153 -140 0
1 -153 149 0
1 153 -146 0
1 -153 -72 0
1 153 67 0
1 -153 84 0
1 -153 99 0
1 -153 -189 0
1 153 -147 0
1 -163 -198 0
1 163 151 0
1 163 -82 0
1 163 116 0
1 -163 140 0
1 -163 149 0
1 163 146 0
1 163 -156 0
1 -163 -199 0
1 163 -84 0
1 163 -161 0
1 -163 189 0
1 163 -147 0
1 161 -143 0
1 161 151 0
1 161 163 0
1 -161 149 0
1 -161 146 0
1 161 156 0
1 161 199 0
1 161 84 0
1 -161 -114 0
1 161 147 0
1 143 200 0
1 -143 -172 0
1 -143 -201 0
1 143 -157 0
1 143 163 0
1 -143 152 0
1 -143 154 0
1 143 -202 0
1 143 170 0
1 143 160 0
1 -143 153 0
1 143 -155 0
1 -146 143 0
1 -146 -172 0
1 146 -157 0
1 146 163 0
1 -146 -152 0
1 -146 -154 0
1 -146 -136 0
1 146 202 0
1 146 170 0
1 -146 203 0
1 -146 161 0
1 146 153 0
1 -146 155 0
1 -147 204 0
1 147 200 0
1 -147 205 0
1 -147 196 0
1 -147 163 0
1 -147 -152 0
1 -147 154 0
1 147 -149 0
1 147 -202 0
1 -147 194 0
1 -147 161 0
1 -147 -153 0
1 147 -155 0
1 147 -137 0
1 -149 200 0
1 -149 196 0
1 -149 163 0
1 149 152 0
1 -149 154 0
1 149 -135 0
1 149 206 0
1 149 202 0
1 -149 207 0
1 149 194 0
1 -149 161 0
1 149 -153 0
1 149 -155 0
1 -149 147 0
1 157 -143 0
1 -157 -196 0
1 157 -151 0
1 -157 78 0
1 157 -90 0
1 -157 146 0
1 157 -156 0
1 157 160 0
1 -157 199 0
1 -157 93 0
1 -160 -198 0
1 -160 -82 0
1 160 -90 0
1 -160 146 0
1 -160 108 0
1 -160 -156 0
1 -160 -194 0
1 160 80 0
1 160 -93 0
1 172 143 0
1 -172 121 0
1 172 205 0
1 172 151 0
1 172 159 0
1 172 90 0
1 172 146 0
1 -172 170 0
1 172 156 0
1 -172 -199 0
1 -172 -162 0
1 -172 158 0
1 -170 -143 0
1 170 -172 0
1 -170 -198 0
1 -170 -208 0
1 -170 90 0
1 -170 -146 0
1 170 207 0
1 -170 -156 0
1 -170 162 0
1 170 158 0
1 -170 -93 0
1 151 64 0
1 151 -163 0
1 151 209 0
1 151 178 0
1 151 167 0
1 151 -170 0
1 -151 -199 0
1 -151 161 0
1 151 -179 0
1 -199 165 0
1 -199 -172 0
1 -199 -157 0
1 199 -151 0
1 199 -178 0
1 199 -167 0
1 199 170 0
1 199 -160 0
1 199 -67 0
1 -199 161 0
1 199 179 0
1 198 210 0
1 198 -200 0
1 198 -172 0
1 198 -68 0
1 198 157 0
1 -198 209 0
1 198 211 0
1 198 -170 0
1 -198 -160 0
1 -198 161 0
1 -156 -210 0
1 -156 -200 0
1 -156 -198 0
1 -156 157 0
1 -156 -209 0
1 -156 211 0
1 -156 -202 0
1 156 -170 0
1 -156 72 0
1 -156 -160 0
1 156 161 0
1 -165 -117 0
1 165 -200 0
1 165 151 0
1 165 -159 0
1 -165 208 0
1 -165 -90 0
1 165 -88 0
1 -165 -102 0
1 -165 -199 0
1 -165 162 0
1 165 158 0
1 -165 -93 0
1 165 89 0
1 165 104 0
1 -167 -165 0
1 167 151 0
1 167 159 0
1 167 -208 0
1 167 90 0
1 167 88 0
1 167 -118 0
1 167 -202 0
1 167 -199 0
1 -167 -162 0
1 -167 -158 0
1 167 -93 0
1 167 -89 0
1 167 104 0
1 -179 -210 0
1 -179 -208 0
1 179 169 0
1 179 178 0
1 -179 199 0
1 179 -162 0
1 -179 -158 0
1 -179 -171 0
1 179 -168 0
1 -179 177 0
1 -179 -104 0
1 178 159 0
1 -178 -179 0
1 -178 169 0
1 -178 -175 0
1 -178 211 0
1 -178 -102 0
1 178 -162 0
1 -178 171 0
1 -178 104 0
1 208 165 0
1 208 172 0
1 208 158 0
1 208 78 0
1 -208 -184 0
1 -208 174 0
1 -208 178 0
1 208 167 0
1 208 -170 0
1 -208 185 0
1 -208 -179 0
1 -158 -172 0
1 158 -184 0
1 158 208 0
1 158 178 0
1 158 -167 0
1 158 -170 0
1 -158 80 0
1 158 -185 0
1 158 176 0
1 -158 179 0
1 159 -165 0
1 -159 -172 0
1 159 82 0
1 -159 167 0
1 159 162 0
1 -159 212 0
1 159 -179 0
1 162 165 0
1 162 172 0
1 -162 -159 0
1 162 -213 0
1 -162 209 0
1 162 178 0
1 162 -167 0
1 -162 -84 0
1 -162 -212 0
1 -162 179 0
1 -176 164 0
1 176 -115 0
1 -176 208 0
1 176 174 0
1 176 -169 0
1 176 166 0
1 176 102 0
1 -176 -98 0
1 176 113 0
1 176 -158 0
1 -176 -171 0
1 176 -168 0
1 176 104 0
1 -174 -164 0
1 -174 -115 0
1 -174 -208 0
1 174 -169 0
1 174 209 0
1 -174 -166 0
1 174 -98 0
1 -174 -113 0
1 174 -168 0
1 -174 171 0
1 174 176 0
1 174 -104 0
1 -185 -115 0
1 -185 208 0
1 -185 -169 0
1 -185 -166 0
1 185 -113 0
1 185 -158 0
1 -185 171 0
1 185 -168 0
1 -184 180 0
1 -184 -208 0
1 184 213 0
1 184 -171 0
1 184 166 0
1 -184 -113 0
1 -184 158 0
1 -184 -185 0
1 -184 -168 0
1 166 -184 0
1 166 -174 0
1 166 88 0
1 166 178 0
1 -166 168 0
1 166 -185 0
1 -166 -176 0
1 -168 184 0
1 168 -178 0
1 -168 -166 0
1 -168 -185 0
1 168 89 0
1 168 -176 0
1 168 179 0
1 169 184 0
1 169 -174 0
1 -169 -178 0
1 -169 171 0
1 169 185 0
1 169 -176 0
1 -169 -179 0
1 171 -184 0
1 171 -174 0
1 171 -169 0
1 -171 93 0
1 171 176 0
1 171 -179 0
1 -196 193 0
1 -196 -191 0
1 196 -142 0
1 196 140 0
1 196 -149 0
1 196 194 0
1 -196 -192 0
1 -196 190 0
1 -196 -141 0
1 -196 189 0
1 -196 147 0
1 -194 -196 0
1 194 -193 0
1 194 -191 0
1 -194 142 0
1 194 140 0
1 194 -149 0
1 -194 160 0
1 -194 -189 0
1 205 -172 0
1 205 193 0
1 -205 191 0
1 205 197 0
1 -205 207 0
1 -205 192 0
1 -205 -190 0
1 205 -214 0
1 -205 -195 0
1 -205 -147 0
1 -207 -205 0
1 -207 193 0
1 207 -197 0
1 207 149 0
1 207 -170 0
1 -207 192 0
1 -207 -214 0
1 207 -195 0
1 -207 147 0
1 -190 -210 0
1 190 205 0
1 190 -196 0
1 -190 -202 0
1 -190 207 0
1 190 -194 0
1 190 187 0
1 -191 210 0
1 191 200 0
1 191 205 0
1 191 -186 0
1 191 -202 0
1 191 207 0
1 -191 190 0
1 192 205 0
1 192 -196 0
1 -192 207 0
1 -192 194 0
1 192 188 0
1 -193 205 0
1 193 196 0
1 193 133 0
1 -193 207 0
1 -193 -194 0
1 200 165 0
1 200 -143 0
1 -200 198 0
1 200 -191 0
1 -200 -197 0
1 -200 149 0
1 200 202 0
1 200 -156 0
1 200 190 0
1 -200 -214 0
1 200 195 0
1 -200 -147 0
1 202 143 0
1 -202 -200 0
1 202 198 0
1 202 191 0
1 202 -215 0
1 -202 -197 0
1 -202 149 0
1 202 -167 0
1 202 -146 0
1 -202 -156 0
1 -202 -190 0
1 -202 214 0
1 -202 147 0
1 210 -204 0
1 -210 -201 0
1 -210 198 0
1 210 -191 0
1 210 -197 0
1 -210 -211 0
1 -210 206 0
1 -210 -156 0
1 210 -190 0
1 210 214 0
1 -210 179 0
1 -211 210 0
1 211 204 0
1 211 201 0
1 211 198 0
1 211 -191 0
1 -211 -215 0
1 -211 -197 0
1 -211 -178 0
1 211 206 0
1 211 203 0
1 211 -190 0
1 211 -214 0
1 -211 -195 0
1 195 -210 0
1 -195 200 0
1 -195 -205 0
1 -195 -213 0
1 195 209 0
1 195 197 0
1 195 -211 0
1 195 202 0
1 -195 207 0
1 195 212 0
1 195 189 0
1 197 -200 0
1 197 -205 0
1 -197 213 0
1 -197 -209 0
1 197 -211 0
1 -197 202 0
1 197 207 0
1 -197 -212 0
1 -197 -195 0
1 214 200 0
1 214 215 0
1 214 211 0
1 214 -202 0
1 -214 -207 0
1 215 -210 0
1 215 -200 0
1 -215 -205 0
1 215 -142 0
1 -215 -211 0
1 -215 202 0
1 -215 -207 0
1 -215 -214 0
1 -209 198 0
1 209 -151 0
1 -209 -159 0
1 -209 174 0
1 -209 206 0
1 -209 -199 0
1 -209 -162 0
1 -209 -195 0
1 212 -204 0
1 212 -201 0
1 -212 159 0
1 -212 213 0
1 212 -197 0
1 -212 -206 0
1 212 -162 0
1 212 -195 0
1 -213 204 0
1 -213 -159 0
1 213 -184 0
1 -213 197 0
1 213 -206 0
1 213 -162 0
1 -213 -212 0
1 213 -195 0
1 -201 210 0
1 201 143 0
1 201 -213 0
1 201 -209 0
1 201 211 0
1 -201 212 0
1 -203 210 0
1 -203 -201 0
1 203 209 0
1 -203 -211 0
1 -203 146 0
1 -204 -210 0
1 -204 -213 0
1 -204 -209 0
1 -204 -206 0
1 204 -147 0
1 -206 -210 0
1 -206 204 0
1 206 -213 0
1 -206 -209 0
1 -206 -149 0
1 206 -212 0
